SCIP Status        : problem creation / modification
Total Time         :       0.01
  reading          :       0.01
Original Problem   :
  Problem name     : main4.zpl
  Variables        : 910 (910 binary, 0 integer, 0 implicit integer, 0 continuous)
  Constraints      : 0 initial, 1000 maximal
  Objective        : minimize, 910 non-zeros (abs.min = 0.00289, abs.max = 5700)
